id: 1165
name: neos-799711
group: miplib2010
method: 1

Gurobi 7.0.2 (linux64, Matlab) logging started Fri Apr 20 03:26:29 2018


Gurobi 7.0.2 (linux64) logging started Fri Apr 20 03:26:29 2018

Optimize a model with 59218 rows, 41998 columns and 147164 nonzeros
Coefficient statistics:
  Matrix range     [6e-04, 1e+08]
  Objective range  [1e+00, 1e+00]
  Bounds range     [1e+00, 1e+00]
  RHS range        [1e+00, 1e+08]
Presolve removed 46887 rows and 30564 columns
Presolve time: 0.04s
Presolved: 12331 rows, 11434 columns, 40969 nonzeros

Iteration    Objective       Primal Inf.    Dual Inf.      Time
       0   -1.5248294e+09   2.242941e+10   0.000000e+00      0s
    4449   -1.1228065e+07   0.000000e+00   0.000000e+00      0s

Solved in 4449 iterations and 0.19 seconds
Optimal objective -1.122806515e+07
status: OPTIMAL
